804.12 0
0 8 14 59 11 66 65 38 0
0 34 46 7 53 35 19 54 13 57 15 5 0
0 12 72 58 10 31 39 9 25 55 18 3 0
0 75 74 21 47 36 37 20 70 60 71 69 61 0
0 4 30 48 29 45 27 52 67 0
0 26 17 40 44 32 50 24 49 0
0 68 2 28 62 73 1 33 6 0
0 51 16 63 23 56 41 43 42 64 22 0